
Gurobi 11.0.1 (win64) logging started Sun Mar 17 01:22:22 2024

Set parameter LogFile to value "res/logfile/leo2log.txt"
Gurobi Optimizer version 11.0.1 build v11.0.1rc0 (win64 - Windows 11.0 (22621.2))

CPU model: AMD Ryzen Threadripper PRO 5975WX 32-Cores, instruction set [SSE2|AVX|AVX2]
Thread count: 32 physical cores, 64 logical processors, using up to 10 threads

Optimize a model with 593 rows, 11100 columns and 219959 nonzeros
Model fingerprint: 0xe90861c8
Variable types: 1 continuous, 11099 integer (11099 binary)
Coefficient statistics:
  Matrix range     [1e+00, 2e+08]
  Objective range  [1e+00, 1e+00]
  Bounds range     [1e+00, 1e+00]
  RHS range        [1e+00, 4e+01]
Warning: Model contains large matrix coefficients
         Consider reformulating model or setting NumericFocus parameter
         to avoid numerical issues.
Found heuristic solution: objective 9.397333e+08
Presolve removed 50 rows and 179 columns
Presolve time: 0.22s
Presolved: 543 rows, 10921 columns, 144219 nonzeros
Variable types: 0 continuous, 10921 integer (10917 binary)
Found heuristic solution: objective 6.696420e+08

Root relaxation: objective 3.880315e+08, 454 iterations, 0.03 seconds (0.10 work units)

    Nodes    |    Current Node    |     Objective Bounds      |     Work
 Expl Unexpl |  Obj  Depth IntInf | Incumbent    BestBd   Gap | It/Node Time

     0     0 3.8803e+08    0   68 6.6964e+08 3.8803e+08  42.1%     -    0s
H    0     0                    4.687930e+08 3.8803e+08  17.2%     -    0s
H    0     0                    4.677395e+08 3.8803e+08  17.0%     -    0s
H    0     0                    4.574623e+08 3.8803e+08  15.2%     -    0s
     0     0 3.8891e+08    0   72 4.5746e+08 3.8891e+08  15.0%     -    1s
H    0     0                    4.435497e+08 3.8916e+08  12.3%     -    1s
H    0     0                    4.299725e+08 3.8916e+08  9.49%     -    2s
     0     0 3.9135e+08    0   80 4.2997e+08 3.9135e+08  8.98%     -    2s
     0     0 3.9135e+08    0   74 4.2997e+08 3.9135e+08  8.98%     -    2s
     0     0 3.9136e+08    0   77 4.2997e+08 3.9136e+08  8.98%     -    2s
     0     0 3.9148e+08    0   78 4.2997e+08 3.9148e+08  8.95%     -    2s
     0     0 3.9148e+08    0   79 4.2997e+08 3.9148e+08  8.95%     -    2s
H    0     0                    4.257057e+08 3.9185e+08  7.95%     -    2s
     0     0 3.9185e+08    0   80 4.2571e+08 3.9185e+08  7.95%     -    2s
H    0     0                    4.241616e+08 3.9281e+08  7.39%     -    2s
     0     0 3.9281e+08    0   87 4.2416e+08 3.9281e+08  7.39%     -    2s
     0     0 3.9281e+08    0   89 4.2416e+08 3.9281e+08  7.39%     -    2s
H    0     0                    4.222539e+08 3.9281e+08  6.97%     -    3s
     0     0 3.9332e+08    0   89 4.2225e+08 3.9332e+08  6.85%     -    3s
H    0     0                    4.170122e+08 3.9344e+08  5.65%     -    3s
     0     0 3.9344e+08    0   93 4.1701e+08 3.9344e+08  5.65%     -    3s
     0     0 3.9349e+08    0   96 4.1701e+08 3.9349e+08  5.64%     -    3s
     0     0 3.9352e+08    0   96 4.1701e+08 3.9352e+08  5.63%     -    3s
     0     0 3.9352e+08    0   94 4.1701e+08 3.9352e+08  5.63%     -    3s
     0     0 3.9354e+08    0   95 4.1701e+08 3.9354e+08  5.63%     -    3s
     0     0 3.9388e+08    0   95 4.1701e+08 3.9388e+08  5.55%     -    3s
     0     0 3.9394e+08    0   99 4.1701e+08 3.9394e+08  5.53%     -    3s
     0     0 3.9397e+08    0  104 4.1701e+08 3.9397e+08  5.53%     -    3s
     0     0 3.9398e+08    0  106 4.1701e+08 3.9398e+08  5.52%     -    3s
     0     0 3.9430e+08    0   94 4.1701e+08 3.9430e+08  5.45%     -    4s
     0     0 3.9445e+08    0  100 4.1701e+08 3.9445e+08  5.41%     -    4s
     0     0 3.9446e+08    0  101 4.1701e+08 3.9446e+08  5.41%     -    4s
     0     0 3.9446e+08    0  102 4.1701e+08 3.9446e+08  5.41%     -    4s
     0     0 3.9458e+08    0   99 4.1701e+08 3.9458e+08  5.38%     -    4s
H    0     0                    4.141322e+08 3.9462e+08  4.71%     -    4s
     0     0 3.9464e+08    0  100 4.1413e+08 3.9464e+08  4.71%     -    4s
     0     0 3.9469e+08    0  101 4.1413e+08 3.9469e+08  4.70%     -    4s
     0     0 3.9469e+08    0  104 4.1413e+08 3.9469e+08  4.69%     -    4s
     0     0 3.9471e+08    0  105 4.1413e+08 3.9471e+08  4.69%     -    4s
     0     0 3.9501e+08    0  103 4.1413e+08 3.9501e+08  4.62%     -    4s
     0     0 3.9506e+08    0  105 4.1413e+08 3.9506e+08  4.61%     -    5s
     0     0 3.9507e+08    0  108 4.1413e+08 3.9507e+08  4.60%     -    5s
     0     0 3.9511e+08    0  109 4.1413e+08 3.9511e+08  4.59%     -    5s
     0     0 3.9514e+08    0  108 4.1413e+08 3.9514e+08  4.59%     -    5s
     0     0 3.9516e+08    0  107 4.1413e+08 3.9516e+08  4.58%     -    5s
     0     0 3.9516e+08    0  111 4.1413e+08 3.9516e+08  4.58%     -    5s
     0     0 3.9517e+08    0  111 4.1413e+08 3.9517e+08  4.58%     -    5s
     0     0 3.9526e+08    0  107 4.1413e+08 3.9526e+08  4.56%     -    5s
     0     0 3.9532e+08    0  114 4.1413e+08 3.9532e+08  4.54%     -    5s
     0     0 3.9536e+08    0  111 4.1413e+08 3.9536e+08  4.53%     -    6s
     0     0 3.9539e+08    0  115 4.1413e+08 3.9539e+08  4.52%     -    6s
     0     0 3.9542e+08    0  114 4.1413e+08 3.9542e+08  4.52%     -    6s
     0     0 3.9544e+08    0  117 4.1413e+08 3.9544e+08  4.51%     -    6s
     0     0 3.9548e+08    0  115 4.1413e+08 3.9548e+08  4.51%     -    6s
     0     0 3.9548e+08    0  114 4.1413e+08 3.9548e+08  4.50%     -    6s
H    0     0                    4.129120e+08 3.9548e+08  4.22%     -    6s
     0     0 3.9565e+08    0  117 4.1291e+08 3.9565e+08  4.18%     -    6s
     0     0 3.9574e+08    0  115 4.1291e+08 3.9574e+08  4.16%     -    6s
     0     0 3.9576e+08    0  117 4.1291e+08 3.9576e+08  4.15%     -    7s
     0     0 3.9580e+08    0  113 4.1291e+08 3.9580e+08  4.14%     -    7s
     0     0 3.9580e+08    0  112 4.1291e+08 3.9580e+08  4.14%     -    7s
     0     0 3.9581e+08    0  114 4.1291e+08 3.9581e+08  4.14%     -    7s
     0     0 3.9581e+08    0  113 4.1291e+08 3.9581e+08  4.14%     -    7s
     0     0 3.9583e+08    0   68 4.1291e+08 3.9583e+08  4.14%     -    8s
     0     0 3.9583e+08    0   76 4.1291e+08 3.9583e+08  4.14%     -    8s
H    0     0                    4.128453e+08 3.9583e+08  4.12%     -    9s
     0     0 3.9583e+08    0   83 4.1285e+08 3.9583e+08  4.12%     -    9s
     0     0 3.9583e+08    0   89 4.1285e+08 3.9583e+08  4.12%     -    9s
     0     0 3.9583e+08    0   84 4.1285e+08 3.9583e+08  4.12%     -    9s
     0     0 3.9583e+08    0   91 4.1285e+08 3.9583e+08  4.12%     -    9s
     0     0 3.9583e+08    0   81 4.1285e+08 3.9583e+08  4.12%     -    9s
     0     0 3.9583e+08    0   94 4.1285e+08 3.9583e+08  4.12%     -    9s
     0     0 3.9583e+08    0   98 4.1285e+08 3.9583e+08  4.12%     -    9s
     0     0 3.9583e+08    0  103 4.1285e+08 3.9583e+08  4.12%     -    9s
     0     0 3.9583e+08    0  108 4.1285e+08 3.9583e+08  4.12%     -    9s
     0     0 3.9583e+08    0  110 4.1285e+08 3.9583e+08  4.12%     -    9s
     0     0 3.9617e+08    0  119 4.1285e+08 3.9617e+08  4.04%     -    9s
     0     0 3.9619e+08    0  113 4.1285e+08 3.9619e+08  4.03%     -    9s
     0     0 3.9619e+08    0  116 4.1285e+08 3.9619e+08  4.03%     -    9s
     0     0 3.9643e+08    0  113 4.1285e+08 3.9643e+08  3.98%     -    9s
     0     0 3.9646e+08    0  119 4.1285e+08 3.9646e+08  3.97%     -    9s
     0     0 3.9652e+08    0  113 4.1285e+08 3.9652e+08  3.96%     -   10s
     0     0 3.9653e+08    0  114 4.1285e+08 3.9653e+08  3.95%     -   10s
     0     0 3.9653e+08    0  114 4.1285e+08 3.9653e+08  3.95%     -   10s
H    0     0                    4.116795e+08 3.9654e+08  3.68%     -   10s
     0     0 3.9654e+08    0  114 4.1168e+08 3.9654e+08  3.68%     -   10s
     0     0 3.9654e+08    0  115 4.1168e+08 3.9654e+08  3.68%     -   10s
     0     0 3.9654e+08    0  115 4.1168e+08 3.9654e+08  3.68%     -   10s
     0     2 3.9654e+08    0  114 4.1168e+08 3.9654e+08  3.68%     -   11s
H   76    81                    4.116557e+08 3.9684e+08  3.60%  69.8   12s
  1709  1796 4.0440e+08  111   70 4.1166e+08 3.9684e+08  3.60%  21.9   15s
H 1861  1712                    4.093335e+08 3.9684e+08  3.05%  21.3   15s
H 2099  1929                    4.090822e+08 3.9684e+08  2.99%  21.0   16s
  3649  3333 4.0879e+08  218   68 4.0908e+08 3.9684e+08  2.99%  18.7   20s
  3708  3372 4.0774e+08   76  115 4.0908e+08 3.9924e+08  2.41%  18.4   25s
H 3711  3204                    4.085554e+08 3.9926e+08  2.27%  18.4   25s
H 3743  3065                    4.084252e+08 3.9963e+08  2.15%  19.4   28s
  3750  3073 3.9973e+08   27  123 4.0843e+08 3.9973e+08  2.13%  19.9   30s
  6329  4404 4.0157e+08   81  101 4.0843e+08 4.0001e+08  2.06%  32.6   35s
 11724  6649 4.0322e+08  144  104 4.0843e+08 4.0001e+08  2.06%  34.7   40s
H12254  5596                    4.072554e+08 4.0001e+08  1.78%  35.1   41s
 16835  8518 4.0580e+08  131  113 4.0726e+08 4.0001e+08  1.78%  35.4   45s
 16875  8545 4.0553e+08  188  127 4.0726e+08 4.0001e+08  1.78%  35.3   50s
 18020  9054 4.0232e+08   65  102 4.0726e+08 4.0034e+08  1.70%  36.9   55s
H20838  9537                    4.065759e+08 4.0034e+08  1.53%  37.9   58s
 23272 10864 4.0537e+08  125   76 4.0658e+08 4.0095e+08  1.38%  38.0   60s
 31267 14226 4.0278e+08   87   90 4.0658e+08 4.0172e+08  1.19%  37.2   65s
H34766 13807                    4.061468e+08 4.0184e+08  1.06%  37.2   67s
H34808 13016                    4.060553e+08 4.0184e+08  1.04%  37.2   67s
H34814 12336                    4.059874e+08 4.0184e+08  1.02%  37.2   67s
H34877 11537                    4.058869e+08 4.0184e+08  1.00%  37.2   67s
H36662  8456                    4.050236e+08 4.0192e+08  0.77%  37.4   68s
*37742  8671              78    4.049893e+08 4.0199e+08  0.74%  37.5   69s
*37756  8562              84    4.049687e+08 4.0199e+08  0.74%  37.5   69s
 38685  9519 4.0314e+08   75   86 4.0497e+08 4.0205e+08  0.72%  37.7   70s
H40540 10170                    4.049276e+08 4.0212e+08  0.69%  37.8   71s
H40588  9896                    4.048660e+08 4.0213e+08  0.68%  37.8   71s
H40591  9592                    4.047993e+08 4.0213e+08  0.66%  37.8   71s
H40746  8029                    4.045210e+08 4.0213e+08  0.59%  37.9   71s
*44117  9139              85    4.045024e+08 4.0229e+08  0.55%  38.6   73s
 45238 10104 4.0355e+08   74   67 4.0450e+08 4.0238e+08  0.53%  38.8   75s
H47647 10072                    4.044476e+08 4.0248e+08  0.49%  39.2   77s
H47671  9584                    4.043927e+08 4.0248e+08  0.47%  39.2   78s
 47688  9595 4.0404e+08   61  129 4.0439e+08 4.0248e+08  0.47%  39.1   80s
 48382  9645 4.0248e+08   74   89 4.0439e+08 4.0248e+08  0.47%  39.6   85s
 50459 10018 4.0381e+08  104   89 4.0439e+08 4.0248e+08  0.47%  39.9   98s
 52267 10134 4.0332e+08   77   70 4.0439e+08 4.0248e+08  0.47%  40.3  100s
*52482  9479              73    4.040774e+08 4.0248e+08  0.39%  40.3  100s
 60426  7293 4.0395e+08   71   76 4.0408e+08 4.0345e+08  0.15%  42.4  105s

Cutting planes:
  Gomory: 2
  Cover: 4
  MIR: 145
  StrongCG: 22
  Flow cover: 33
  GUB cover: 3
  Zero half: 3
  Mod-K: 2
  RLT: 1

Explored 64383 nodes (2768742 simplex iterations) in 106.65 seconds (240.60 work units)
Thread count was 10 (of 64 available processors)

Solution count 10: 4.04077e+08 4.04393e+08 4.04448e+08 ... 4.04989e+08

Optimal solution found (tolerance 1.00e-04)
Best objective 4.040774411200e+08, best bound 4.040774411200e+08, gap 0.0000%

User-callback calls 133955, time in user-callback 0.02 sec
